(set-info :Origin "This instance was generated by: BanditFuzz-- an RL fuzzer for SMT solvers" )
(set-info :Author "Joe Scott, Fed Mora, Vijay Ganesh" )
(set-info :Contact "Joe Scott, joseph.scott@uwaterloo.ca")
(set-logic QF_BV)
(declare-const bool_0 Bool)
(declare-const bool_1 Bool)
(declare-const bool_2 Bool)
(declare-const bool_3 Bool)
(declare-const bool_4 Bool)
(declare-const bv_0 (_ BitVec 32))
(declare-const bv_1 (_ BitVec 32))
(declare-const bv_2 (_ BitVec 32))
(declare-const bv_3 (_ BitVec 32))
(declare-const bv_4 (_ BitVec 32))
(assert (bvult (bvsrem (bvudiv bv_0 bv_0) (bvxnor #x38b87b8e  bv_1)) (bvmul (bvsmod #x1967cc31  bv_4) (bvxor bv_1 #xddc84fc6 ))))
(assert (bvsge (bvudiv (bvsub bv_0 #x06e386d7 ) (bvxor bv_3 bv_2)) (bvashr (bvand bv_4 bv_2) (bvlshr #xdfcfe980  bv_1))))
(assert (bvugt (bvurem (bvlshr #x7f958a9e  #xbddba771 ) (bvsmod bv_0 bv_1)) (bvsmod (bvsdiv bv_4 #xf14d81e4 ) (bvmul bv_3 bv_1))))
(assert (or (bvsgt (bvurem #xee5e77a2  bv_1) (bvadd bv_2 #x20342621 )) (=> (bvsgt #x36771fc6  bv_0) (and bool_0 bool_2))))
(assert (bvuge (bvlshr (bvshl bv_3 bv_4) (bvor bv_4 #x7779bf7a )) (bvsmod (bvudiv bv_3 #x2dee534a ) (bvxor #x4102ecd0  #xf37d7246 ))))
(check-sat)
(exit)
